data/processed_heuristic-threshold/instances/1/7/ds_723_courier_3156/pairwise.tsp
NAME: ds_723_courier_3156
TYPE: TSP
COMMENT: nil
DIMENSION: 8
EDGE_WEIGHT_TYPE: EXPLICIT
EDGE_WEIGHT_FORMAT: FULL_MATRIX
EDGE_WEIGHT_SECTION
9999 3815 3025 3123 3227 3387 3607 2961 
3815 9999 982 693 945 462 492 1197 
3025 982 9999 568 236 537 606 243 
3123 693 568 9999 709 324 652 806 
3227 945 236 709 9999 563 490 292 
3387 462 537 324 563 9999 335 769 
3607 492 606 652 490 335 9999 773 
2961 1197 243 806 292 769 773 9999 
