data/processed_heuristic-threshold/instances/1/7/ds_723_courier_3156/pairwise.sol
8
0 3 5 1 6 4 2 7 
